c *********************************
c * Circuit generated by BenCGen
c *
c * Parity_397
c *
c * Ports with 1 gate(s): 1
c * Ports with 2 gate(s): 397
c * Total gates: 398
c *********************************
p cnf 795 1589
1 400 0
-1 -400 0
1 -399 0
400 -399 0
-1 -400 399 0
1 2 -401 0
-1 2 401 0
1 -2 401 0
-1 -2 -401 0
3 4 -402 0
-3 4 402 0
3 -4 402 0
-3 -4 -402 0
5 6 -403 0
-5 6 403 0
5 -6 403 0
-5 -6 -403 0
7 8 -404 0
-7 8 404 0
7 -8 404 0
-7 -8 -404 0
9 10 -405 0
-9 10 405 0
9 -10 405 0
-9 -10 -405 0
11 12 -406 0
-11 12 406 0
11 -12 406 0
-11 -12 -406 0
13 14 -407 0
-13 14 407 0
13 -14 407 0
-13 -14 -407 0
15 16 -408 0
-15 16 408 0
15 -16 408 0
-15 -16 -408 0
17 18 -409 0
-17 18 409 0
17 -18 409 0
-17 -18 -409 0
19 20 -410 0
-19 20 410 0
19 -20 410 0
-19 -20 -410 0
21 22 -411 0
-21 22 411 0
21 -22 411 0
-21 -22 -411 0
23 24 -412 0
-23 24 412 0
23 -24 412 0
-23 -24 -412 0
25 26 -413 0
-25 26 413 0
25 -26 413 0
-25 -26 -413 0
27 28 -414 0
-27 28 414 0
27 -28 414 0
-27 -28 -414 0
29 30 -415 0
-29 30 415 0
29 -30 415 0
-29 -30 -415 0
31 32 -416 0
-31 32 416 0
31 -32 416 0
-31 -32 -416 0
33 34 -417 0
-33 34 417 0
33 -34 417 0
-33 -34 -417 0
35 36 -418 0
-35 36 418 0
35 -36 418 0
-35 -36 -418 0
37 38 -419 0
-37 38 419 0
37 -38 419 0
-37 -38 -419 0
39 40 -420 0
-39 40 420 0
39 -40 420 0
-39 -40 -420 0
41 42 -421 0
-41 42 421 0
41 -42 421 0
-41 -42 -421 0
43 44 -422 0
-43 44 422 0
43 -44 422 0
-43 -44 -422 0
45 46 -423 0
-45 46 423 0
45 -46 423 0
-45 -46 -423 0
47 48 -424 0
-47 48 424 0
47 -48 424 0
-47 -48 -424 0
49 50 -425 0
-49 50 425 0
49 -50 425 0
-49 -50 -425 0
51 52 -426 0
-51 52 426 0
51 -52 426 0
-51 -52 -426 0
53 54 -427 0
-53 54 427 0
53 -54 427 0
-53 -54 -427 0
55 56 -428 0
-55 56 428 0
55 -56 428 0
-55 -56 -428 0
57 58 -429 0
-57 58 429 0
57 -58 429 0
-57 -58 -429 0
59 60 -430 0
-59 60 430 0
59 -60 430 0
-59 -60 -430 0
61 62 -431 0
-61 62 431 0
61 -62 431 0
-61 -62 -431 0
63 64 -432 0
-63 64 432 0
63 -64 432 0
-63 -64 -432 0
65 66 -433 0
-65 66 433 0
65 -66 433 0
-65 -66 -433 0
67 68 -434 0
-67 68 434 0
67 -68 434 0
-67 -68 -434 0
69 70 -435 0
-69 70 435 0
69 -70 435 0
-69 -70 -435 0
71 72 -436 0
-71 72 436 0
71 -72 436 0
-71 -72 -436 0
73 74 -437 0
-73 74 437 0
73 -74 437 0
-73 -74 -437 0
75 76 -438 0
-75 76 438 0
75 -76 438 0
-75 -76 -438 0
77 78 -439 0
-77 78 439 0
77 -78 439 0
-77 -78 -439 0
79 80 -440 0
-79 80 440 0
79 -80 440 0
-79 -80 -440 0
81 82 -441 0
-81 82 441 0
81 -82 441 0
-81 -82 -441 0
83 84 -442 0
-83 84 442 0
83 -84 442 0
-83 -84 -442 0
85 86 -443 0
-85 86 443 0
85 -86 443 0
-85 -86 -443 0
87 88 -444 0
-87 88 444 0
87 -88 444 0
-87 -88 -444 0
89 90 -445 0
-89 90 445 0
89 -90 445 0
-89 -90 -445 0
91 92 -446 0
-91 92 446 0
91 -92 446 0
-91 -92 -446 0
93 94 -447 0
-93 94 447 0
93 -94 447 0
-93 -94 -447 0
95 96 -448 0
-95 96 448 0
95 -96 448 0
-95 -96 -448 0
97 98 -449 0
-97 98 449 0
97 -98 449 0
-97 -98 -449 0
99 100 -450 0
-99 100 450 0
99 -100 450 0
-99 -100 -450 0
101 102 -451 0
-101 102 451 0
101 -102 451 0
-101 -102 -451 0
103 104 -452 0
-103 104 452 0
103 -104 452 0
-103 -104 -452 0
105 106 -453 0
-105 106 453 0
105 -106 453 0
-105 -106 -453 0
107 108 -454 0
-107 108 454 0
107 -108 454 0
-107 -108 -454 0
109 110 -455 0
-109 110 455 0
109 -110 455 0
-109 -110 -455 0
111 112 -456 0
-111 112 456 0
111 -112 456 0
-111 -112 -456 0
113 114 -457 0
-113 114 457 0
113 -114 457 0
-113 -114 -457 0
115 116 -458 0
-115 116 458 0
115 -116 458 0
-115 -116 -458 0
117 118 -459 0
-117 118 459 0
117 -118 459 0
-117 -118 -459 0
119 120 -460 0
-119 120 460 0
119 -120 460 0
-119 -120 -460 0
121 122 -461 0
-121 122 461 0
121 -122 461 0
-121 -122 -461 0
123 124 -462 0
-123 124 462 0
123 -124 462 0
-123 -124 -462 0
125 126 -463 0
-125 126 463 0
125 -126 463 0
-125 -126 -463 0
127 128 -464 0
-127 128 464 0
127 -128 464 0
-127 -128 -464 0
129 130 -465 0
-129 130 465 0
129 -130 465 0
-129 -130 -465 0
131 132 -466 0
-131 132 466 0
131 -132 466 0
-131 -132 -466 0
133 134 -467 0
-133 134 467 0
133 -134 467 0
-133 -134 -467 0
135 136 -468 0
-135 136 468 0
135 -136 468 0
-135 -136 -468 0
137 138 -469 0
-137 138 469 0
137 -138 469 0
-137 -138 -469 0
139 140 -470 0
-139 140 470 0
139 -140 470 0
-139 -140 -470 0
141 142 -471 0
-141 142 471 0
141 -142 471 0
-141 -142 -471 0
143 144 -472 0
-143 144 472 0
143 -144 472 0
-143 -144 -472 0
145 146 -473 0
-145 146 473 0
145 -146 473 0
-145 -146 -473 0
147 148 -474 0
-147 148 474 0
147 -148 474 0
-147 -148 -474 0
149 150 -475 0
-149 150 475 0
149 -150 475 0
-149 -150 -475 0
151 152 -476 0
-151 152 476 0
151 -152 476 0
-151 -152 -476 0
153 154 -477 0
-153 154 477 0
153 -154 477 0
-153 -154 -477 0
155 156 -478 0
-155 156 478 0
155 -156 478 0
-155 -156 -478 0
157 158 -479 0
-157 158 479 0
157 -158 479 0
-157 -158 -479 0
159 160 -480 0
-159 160 480 0
159 -160 480 0
-159 -160 -480 0
161 162 -481 0
-161 162 481 0
161 -162 481 0
-161 -162 -481 0
163 164 -482 0
-163 164 482 0
163 -164 482 0
-163 -164 -482 0
165 166 -483 0
-165 166 483 0
165 -166 483 0
-165 -166 -483 0
167 168 -484 0
-167 168 484 0
167 -168 484 0
-167 -168 -484 0
169 170 -485 0
-169 170 485 0
169 -170 485 0
-169 -170 -485 0
171 172 -486 0
-171 172 486 0
171 -172 486 0
-171 -172 -486 0
173 174 -487 0
-173 174 487 0
173 -174 487 0
-173 -174 -487 0
175 176 -488 0
-175 176 488 0
175 -176 488 0
-175 -176 -488 0
177 178 -489 0
-177 178 489 0
177 -178 489 0
-177 -178 -489 0
179 180 -490 0
-179 180 490 0
179 -180 490 0
-179 -180 -490 0
181 182 -491 0
-181 182 491 0
181 -182 491 0
-181 -182 -491 0
183 184 -492 0
-183 184 492 0
183 -184 492 0
-183 -184 -492 0
185 186 -493 0
-185 186 493 0
185 -186 493 0
-185 -186 -493 0
187 188 -494 0
-187 188 494 0
187 -188 494 0
-187 -188 -494 0
189 190 -495 0
-189 190 495 0
189 -190 495 0
-189 -190 -495 0
191 192 -496 0
-191 192 496 0
191 -192 496 0
-191 -192 -496 0
193 194 -497 0
-193 194 497 0
193 -194 497 0
-193 -194 -497 0
195 196 -498 0
-195 196 498 0
195 -196 498 0
-195 -196 -498 0
197 198 -499 0
-197 198 499 0
197 -198 499 0
-197 -198 -499 0
199 200 -500 0
-199 200 500 0
199 -200 500 0
-199 -200 -500 0
201 202 -501 0
-201 202 501 0
201 -202 501 0
-201 -202 -501 0
203 204 -502 0
-203 204 502 0
203 -204 502 0
-203 -204 -502 0
205 206 -503 0
-205 206 503 0
205 -206 503 0
-205 -206 -503 0
207 208 -504 0
-207 208 504 0
207 -208 504 0
-207 -208 -504 0
209 210 -505 0
-209 210 505 0
209 -210 505 0
-209 -210 -505 0
211 212 -506 0
-211 212 506 0
211 -212 506 0
-211 -212 -506 0
213 214 -507 0
-213 214 507 0
213 -214 507 0
-213 -214 -507 0
215 216 -508 0
-215 216 508 0
215 -216 508 0
-215 -216 -508 0
217 218 -509 0
-217 218 509 0
217 -218 509 0
-217 -218 -509 0
219 220 -510 0
-219 220 510 0
219 -220 510 0
-219 -220 -510 0
221 222 -511 0
-221 222 511 0
221 -222 511 0
-221 -222 -511 0
223 224 -512 0
-223 224 512 0
223 -224 512 0
-223 -224 -512 0
225 226 -513 0
-225 226 513 0
225 -226 513 0
-225 -226 -513 0
227 228 -514 0
-227 228 514 0
227 -228 514 0
-227 -228 -514 0
229 230 -515 0
-229 230 515 0
229 -230 515 0
-229 -230 -515 0
231 232 -516 0
-231 232 516 0
231 -232 516 0
-231 -232 -516 0
233 234 -517 0
-233 234 517 0
233 -234 517 0
-233 -234 -517 0
235 236 -518 0
-235 236 518 0
235 -236 518 0
-235 -236 -518 0
237 238 -519 0
-237 238 519 0
237 -238 519 0
-237 -238 -519 0
239 240 -520 0
-239 240 520 0
239 -240 520 0
-239 -240 -520 0
241 242 -521 0
-241 242 521 0
241 -242 521 0
-241 -242 -521 0
243 244 -522 0
-243 244 522 0
243 -244 522 0
-243 -244 -522 0
245 246 -523 0
-245 246 523 0
245 -246 523 0
-245 -246 -523 0
247 248 -524 0
-247 248 524 0
247 -248 524 0
-247 -248 -524 0
249 250 -525 0
-249 250 525 0
249 -250 525 0
-249 -250 -525 0
251 252 -526 0
-251 252 526 0
251 -252 526 0
-251 -252 -526 0
253 254 -527 0
-253 254 527 0
253 -254 527 0
-253 -254 -527 0
255 256 -528 0
-255 256 528 0
255 -256 528 0
-255 -256 -528 0
257 258 -529 0
-257 258 529 0
257 -258 529 0
-257 -258 -529 0
259 260 -530 0
-259 260 530 0
259 -260 530 0
-259 -260 -530 0
261 262 -531 0
-261 262 531 0
261 -262 531 0
-261 -262 -531 0
263 264 -532 0
-263 264 532 0
263 -264 532 0
-263 -264 -532 0
265 266 -533 0
-265 266 533 0
265 -266 533 0
-265 -266 -533 0
267 268 -534 0
-267 268 534 0
267 -268 534 0
-267 -268 -534 0
269 270 -535 0
-269 270 535 0
269 -270 535 0
-269 -270 -535 0
271 272 -536 0
-271 272 536 0
271 -272 536 0
-271 -272 -536 0
273 274 -537 0
-273 274 537 0
273 -274 537 0
-273 -274 -537 0
275 276 -538 0
-275 276 538 0
275 -276 538 0
-275 -276 -538 0
277 278 -539 0
-277 278 539 0
277 -278 539 0
-277 -278 -539 0
279 280 -540 0
-279 280 540 0
279 -280 540 0
-279 -280 -540 0
281 282 -541 0
-281 282 541 0
281 -282 541 0
-281 -282 -541 0
283 284 -542 0
-283 284 542 0
283 -284 542 0
-283 -284 -542 0
285 286 -543 0
-285 286 543 0
285 -286 543 0
-285 -286 -543 0
287 288 -544 0
-287 288 544 0
287 -288 544 0
-287 -288 -544 0
289 290 -545 0
-289 290 545 0
289 -290 545 0
-289 -290 -545 0
291 292 -546 0
-291 292 546 0
291 -292 546 0
-291 -292 -546 0
293 294 -547 0
-293 294 547 0
293 -294 547 0
-293 -294 -547 0
295 296 -548 0
-295 296 548 0
295 -296 548 0
-295 -296 -548 0
297 298 -549 0
-297 298 549 0
297 -298 549 0
-297 -298 -549 0
299 300 -550 0
-299 300 550 0
299 -300 550 0
-299 -300 -550 0
301 302 -551 0
-301 302 551 0
301 -302 551 0
-301 -302 -551 0
303 304 -552 0
-303 304 552 0
303 -304 552 0
-303 -304 -552 0
305 306 -553 0
-305 306 553 0
305 -306 553 0
-305 -306 -553 0
307 308 -554 0
-307 308 554 0
307 -308 554 0
-307 -308 -554 0
309 310 -555 0
-309 310 555 0
309 -310 555 0
-309 -310 -555 0
311 312 -556 0
-311 312 556 0
311 -312 556 0
-311 -312 -556 0
313 314 -557 0
-313 314 557 0
313 -314 557 0
-313 -314 -557 0
315 316 -558 0
-315 316 558 0
315 -316 558 0
-315 -316 -558 0
317 318 -559 0
-317 318 559 0
317 -318 559 0
-317 -318 -559 0
319 320 -560 0
-319 320 560 0
319 -320 560 0
-319 -320 -560 0
321 322 -561 0
-321 322 561 0
321 -322 561 0
-321 -322 -561 0
323 324 -562 0
-323 324 562 0
323 -324 562 0
-323 -324 -562 0
325 326 -563 0
-325 326 563 0
325 -326 563 0
-325 -326 -563 0
327 328 -564 0
-327 328 564 0
327 -328 564 0
-327 -328 -564 0
329 330 -565 0
-329 330 565 0
329 -330 565 0
-329 -330 -565 0
331 332 -566 0
-331 332 566 0
331 -332 566 0
-331 -332 -566 0
333 334 -567 0
-333 334 567 0
333 -334 567 0
-333 -334 -567 0
335 336 -568 0
-335 336 568 0
335 -336 568 0
-335 -336 -568 0
337 338 -569 0
-337 338 569 0
337 -338 569 0
-337 -338 -569 0
339 340 -570 0
-339 340 570 0
339 -340 570 0
-339 -340 -570 0
341 342 -571 0
-341 342 571 0
341 -342 571 0
-341 -342 -571 0
343 344 -572 0
-343 344 572 0
343 -344 572 0
-343 -344 -572 0
345 346 -573 0
-345 346 573 0
345 -346 573 0
-345 -346 -573 0
347 348 -574 0
-347 348 574 0
347 -348 574 0
-347 -348 -574 0
349 350 -575 0
-349 350 575 0
349 -350 575 0
-349 -350 -575 0
351 352 -576 0
-351 352 576 0
351 -352 576 0
-351 -352 -576 0
353 354 -577 0
-353 354 577 0
353 -354 577 0
-353 -354 -577 0
355 356 -578 0
-355 356 578 0
355 -356 578 0
-355 -356 -578 0
357 358 -579 0
-357 358 579 0
357 -358 579 0
-357 -358 -579 0
359 360 -580 0
-359 360 580 0
359 -360 580 0
-359 -360 -580 0
361 362 -581 0
-361 362 581 0
361 -362 581 0
-361 -362 -581 0
363 364 -582 0
-363 364 582 0
363 -364 582 0
-363 -364 -582 0
365 366 -583 0
-365 366 583 0
365 -366 583 0
-365 -366 -583 0
367 368 -584 0
-367 368 584 0
367 -368 584 0
-367 -368 -584 0
369 370 -585 0
-369 370 585 0
369 -370 585 0
-369 -370 -585 0
371 372 -586 0
-371 372 586 0
371 -372 586 0
-371 -372 -586 0
373 374 -587 0
-373 374 587 0
373 -374 587 0
-373 -374 -587 0
375 376 -588 0
-375 376 588 0
375 -376 588 0
-375 -376 -588 0
377 378 -589 0
-377 378 589 0
377 -378 589 0
-377 -378 -589 0
379 380 -590 0
-379 380 590 0
379 -380 590 0
-379 -380 -590 0
381 382 -591 0
-381 382 591 0
381 -382 591 0
-381 -382 -591 0
383 384 -592 0
-383 384 592 0
383 -384 592 0
-383 -384 -592 0
385 386 -593 0
-385 386 593 0
385 -386 593 0
-385 -386 -593 0
387 388 -594 0
-387 388 594 0
387 -388 594 0
-387 -388 -594 0
389 390 -595 0
-389 390 595 0
389 -390 595 0
-389 -390 -595 0
391 392 -596 0
-391 392 596 0
391 -392 596 0
-391 -392 -596 0
393 394 -597 0
-393 394 597 0
393 -394 597 0
-393 -394 -597 0
395 396 -598 0
-395 396 598 0
395 -396 598 0
-395 -396 -598 0
401 402 -599 0
-401 402 599 0
401 -402 599 0
-401 -402 -599 0
403 404 -600 0
-403 404 600 0
403 -404 600 0
-403 -404 -600 0
405 406 -601 0
-405 406 601 0
405 -406 601 0
-405 -406 -601 0
407 408 -602 0
-407 408 602 0
407 -408 602 0
-407 -408 -602 0
409 410 -603 0
-409 410 603 0
409 -410 603 0
-409 -410 -603 0
411 412 -604 0
-411 412 604 0
411 -412 604 0
-411 -412 -604 0
413 414 -605 0
-413 414 605 0
413 -414 605 0
-413 -414 -605 0
415 416 -606 0
-415 416 606 0
415 -416 606 0
-415 -416 -606 0
417 418 -607 0
-417 418 607 0
417 -418 607 0
-417 -418 -607 0
419 420 -608 0
-419 420 608 0
419 -420 608 0
-419 -420 -608 0
421 422 -609 0
-421 422 609 0
421 -422 609 0
-421 -422 -609 0
423 424 -610 0
-423 424 610 0
423 -424 610 0
-423 -424 -610 0
425 426 -611 0
-425 426 611 0
425 -426 611 0
-425 -426 -611 0
427 428 -612 0
-427 428 612 0
427 -428 612 0
-427 -428 -612 0
429 430 -613 0
-429 430 613 0
429 -430 613 0
-429 -430 -613 0
431 432 -614 0
-431 432 614 0
431 -432 614 0
-431 -432 -614 0
433 434 -615 0
-433 434 615 0
433 -434 615 0
-433 -434 -615 0
435 436 -616 0
-435 436 616 0
435 -436 616 0
-435 -436 -616 0
437 438 -617 0
-437 438 617 0
437 -438 617 0
-437 -438 -617 0
439 440 -618 0
-439 440 618 0
439 -440 618 0
-439 -440 -618 0
441 442 -619 0
-441 442 619 0
441 -442 619 0
-441 -442 -619 0
443 444 -620 0
-443 444 620 0
443 -444 620 0
-443 -444 -620 0
445 446 -621 0
-445 446 621 0
445 -446 621 0
-445 -446 -621 0
447 448 -622 0
-447 448 622 0
447 -448 622 0
-447 -448 -622 0
449 450 -623 0
-449 450 623 0
449 -450 623 0
-449 -450 -623 0
451 452 -624 0
-451 452 624 0
451 -452 624 0
-451 -452 -624 0
453 454 -625 0
-453 454 625 0
453 -454 625 0
-453 -454 -625 0
455 456 -626 0
-455 456 626 0
455 -456 626 0
-455 -456 -626 0
457 458 -627 0
-457 458 627 0
457 -458 627 0
-457 -458 -627 0
459 460 -628 0
-459 460 628 0
459 -460 628 0
-459 -460 -628 0
461 462 -629 0
-461 462 629 0
461 -462 629 0
-461 -462 -629 0
463 464 -630 0
-463 464 630 0
463 -464 630 0
-463 -464 -630 0
465 466 -631 0
-465 466 631 0
465 -466 631 0
-465 -466 -631 0
467 468 -632 0
-467 468 632 0
467 -468 632 0
-467 -468 -632 0
469 470 -633 0
-469 470 633 0
469 -470 633 0
-469 -470 -633 0
471 472 -634 0
-471 472 634 0
471 -472 634 0
-471 -472 -634 0
473 474 -635 0
-473 474 635 0
473 -474 635 0
-473 -474 -635 0
475 476 -636 0
-475 476 636 0
475 -476 636 0
-475 -476 -636 0
477 478 -637 0
-477 478 637 0
477 -478 637 0
-477 -478 -637 0
479 480 -638 0
-479 480 638 0
479 -480 638 0
-479 -480 -638 0
481 482 -639 0
-481 482 639 0
481 -482 639 0
-481 -482 -639 0
483 484 -640 0
-483 484 640 0
483 -484 640 0
-483 -484 -640 0
485 486 -641 0
-485 486 641 0
485 -486 641 0
-485 -486 -641 0
487 488 -642 0
-487 488 642 0
487 -488 642 0
-487 -488 -642 0
489 490 -643 0
-489 490 643 0
489 -490 643 0
-489 -490 -643 0
491 492 -644 0
-491 492 644 0
491 -492 644 0
-491 -492 -644 0
493 494 -645 0
-493 494 645 0
493 -494 645 0
-493 -494 -645 0
495 496 -646 0
-495 496 646 0
495 -496 646 0
-495 -496 -646 0
497 498 -647 0
-497 498 647 0
497 -498 647 0
-497 -498 -647 0
499 500 -648 0
-499 500 648 0
499 -500 648 0
-499 -500 -648 0
501 502 -649 0
-501 502 649 0
501 -502 649 0
-501 -502 -649 0
503 504 -650 0
-503 504 650 0
503 -504 650 0
-503 -504 -650 0
505 506 -651 0
-505 506 651 0
505 -506 651 0
-505 -506 -651 0
507 508 -652 0
-507 508 652 0
507 -508 652 0
-507 -508 -652 0
509 510 -653 0
-509 510 653 0
509 -510 653 0
-509 -510 -653 0
511 512 -654 0
-511 512 654 0
511 -512 654 0
-511 -512 -654 0
513 514 -655 0
-513 514 655 0
513 -514 655 0
-513 -514 -655 0
515 516 -656 0
-515 516 656 0
515 -516 656 0
-515 -516 -656 0
517 518 -657 0
-517 518 657 0
517 -518 657 0
-517 -518 -657 0
519 520 -658 0
-519 520 658 0
519 -520 658 0
-519 -520 -658 0
521 522 -659 0
-521 522 659 0
521 -522 659 0
-521 -522 -659 0
523 524 -660 0
-523 524 660 0
523 -524 660 0
-523 -524 -660 0
525 526 -661 0
-525 526 661 0
525 -526 661 0
-525 -526 -661 0
527 528 -662 0
-527 528 662 0
527 -528 662 0
-527 -528 -662 0
529 530 -663 0
-529 530 663 0
529 -530 663 0
-529 -530 -663 0
531 532 -664 0
-531 532 664 0
531 -532 664 0
-531 -532 -664 0
533 534 -665 0
-533 534 665 0
533 -534 665 0
-533 -534 -665 0
535 536 -666 0
-535 536 666 0
535 -536 666 0
-535 -536 -666 0
537 538 -667 0
-537 538 667 0
537 -538 667 0
-537 -538 -667 0
539 540 -668 0
-539 540 668 0
539 -540 668 0
-539 -540 -668 0
541 542 -669 0
-541 542 669 0
541 -542 669 0
-541 -542 -669 0
543 544 -670 0
-543 544 670 0
543 -544 670 0
-543 -544 -670 0
545 546 -671 0
-545 546 671 0
545 -546 671 0
-545 -546 -671 0
547 548 -672 0
-547 548 672 0
547 -548 672 0
-547 -548 -672 0
549 550 -673 0
-549 550 673 0
549 -550 673 0
-549 -550 -673 0
551 552 -674 0
-551 552 674 0
551 -552 674 0
-551 -552 -674 0
553 554 -675 0
-553 554 675 0
553 -554 675 0
-553 -554 -675 0
555 556 -676 0
-555 556 676 0
555 -556 676 0
-555 -556 -676 0
557 558 -677 0
-557 558 677 0
557 -558 677 0
-557 -558 -677 0
559 560 -678 0
-559 560 678 0
559 -560 678 0
-559 -560 -678 0
561 562 -679 0
-561 562 679 0
561 -562 679 0
-561 -562 -679 0
563 564 -680 0
-563 564 680 0
563 -564 680 0
-563 -564 -680 0
565 566 -681 0
-565 566 681 0
565 -566 681 0
-565 -566 -681 0
567 568 -682 0
-567 568 682 0
567 -568 682 0
-567 -568 -682 0
569 570 -683 0
-569 570 683 0
569 -570 683 0
-569 -570 -683 0
571 572 -684 0
-571 572 684 0
571 -572 684 0
-571 -572 -684 0
573 574 -685 0
-573 574 685 0
573 -574 685 0
-573 -574 -685 0
575 576 -686 0
-575 576 686 0
575 -576 686 0
-575 -576 -686 0
577 578 -687 0
-577 578 687 0
577 -578 687 0
-577 -578 -687 0
579 580 -688 0
-579 580 688 0
579 -580 688 0
-579 -580 -688 0
581 582 -689 0
-581 582 689 0
581 -582 689 0
-581 -582 -689 0
583 584 -690 0
-583 584 690 0
583 -584 690 0
-583 -584 -690 0
585 586 -691 0
-585 586 691 0
585 -586 691 0
-585 -586 -691 0
587 588 -692 0
-587 588 692 0
587 -588 692 0
-587 -588 -692 0
589 590 -693 0
-589 590 693 0
589 -590 693 0
-589 -590 -693 0
591 592 -694 0
-591 592 694 0
591 -592 694 0
-591 -592 -694 0
593 594 -695 0
-593 594 695 0
593 -594 695 0
-593 -594 -695 0
595 596 -696 0
-595 596 696 0
595 -596 696 0
-595 -596 -696 0
597 598 -697 0
-597 598 697 0
597 -598 697 0
-597 -598 -697 0
599 600 -698 0
-599 600 698 0
599 -600 698 0
-599 -600 -698 0
601 602 -699 0
-601 602 699 0
601 -602 699 0
-601 -602 -699 0
603 604 -700 0
-603 604 700 0
603 -604 700 0
-603 -604 -700 0
605 606 -701 0
-605 606 701 0
605 -606 701 0
-605 -606 -701 0
607 608 -702 0
-607 608 702 0
607 -608 702 0
-607 -608 -702 0
609 610 -703 0
-609 610 703 0
609 -610 703 0
-609 -610 -703 0
611 612 -704 0
-611 612 704 0
611 -612 704 0
-611 -612 -704 0
613 614 -705 0
-613 614 705 0
613 -614 705 0
-613 -614 -705 0
615 616 -706 0
-615 616 706 0
615 -616 706 0
-615 -616 -706 0
617 618 -707 0
-617 618 707 0
617 -618 707 0
-617 -618 -707 0
619 620 -708 0
-619 620 708 0
619 -620 708 0
-619 -620 -708 0
621 622 -709 0
-621 622 709 0
621 -622 709 0
-621 -622 -709 0
623 624 -710 0
-623 624 710 0
623 -624 710 0
-623 -624 -710 0
625 626 -711 0
-625 626 711 0
625 -626 711 0
-625 -626 -711 0
627 628 -712 0
-627 628 712 0
627 -628 712 0
-627 -628 -712 0
629 630 -713 0
-629 630 713 0
629 -630 713 0
-629 -630 -713 0
631 632 -714 0
-631 632 714 0
631 -632 714 0
-631 -632 -714 0
633 634 -715 0
-633 634 715 0
633 -634 715 0
-633 -634 -715 0
635 636 -716 0
-635 636 716 0
635 -636 716 0
-635 -636 -716 0
637 638 -717 0
-637 638 717 0
637 -638 717 0
-637 -638 -717 0
639 640 -718 0
-639 640 718 0
639 -640 718 0
-639 -640 -718 0
641 642 -719 0
-641 642 719 0
641 -642 719 0
-641 -642 -719 0
643 644 -720 0
-643 644 720 0
643 -644 720 0
-643 -644 -720 0
645 646 -721 0
-645 646 721 0
645 -646 721 0
-645 -646 -721 0
647 648 -722 0
-647 648 722 0
647 -648 722 0
-647 -648 -722 0
649 650 -723 0
-649 650 723 0
649 -650 723 0
-649 -650 -723 0
651 652 -724 0
-651 652 724 0
651 -652 724 0
-651 -652 -724 0
653 654 -725 0
-653 654 725 0
653 -654 725 0
-653 -654 -725 0
655 656 -726 0
-655 656 726 0
655 -656 726 0
-655 -656 -726 0
657 658 -727 0
-657 658 727 0
657 -658 727 0
-657 -658 -727 0
659 660 -728 0
-659 660 728 0
659 -660 728 0
-659 -660 -728 0
661 662 -729 0
-661 662 729 0
661 -662 729 0
-661 -662 -729 0
663 664 -730 0
-663 664 730 0
663 -664 730 0
-663 -664 -730 0
665 666 -731 0
-665 666 731 0
665 -666 731 0
-665 -666 -731 0
667 668 -732 0
-667 668 732 0
667 -668 732 0
-667 -668 -732 0
669 670 -733 0
-669 670 733 0
669 -670 733 0
-669 -670 -733 0
671 672 -734 0
-671 672 734 0
671 -672 734 0
-671 -672 -734 0
673 674 -735 0
-673 674 735 0
673 -674 735 0
-673 -674 -735 0
675 676 -736 0
-675 676 736 0
675 -676 736 0
-675 -676 -736 0
677 678 -737 0
-677 678 737 0
677 -678 737 0
-677 -678 -737 0
679 680 -738 0
-679 680 738 0
679 -680 738 0
-679 -680 -738 0
681 682 -739 0
-681 682 739 0
681 -682 739 0
-681 -682 -739 0
683 684 -740 0
-683 684 740 0
683 -684 740 0
-683 -684 -740 0
685 686 -741 0
-685 686 741 0
685 -686 741 0
-685 -686 -741 0
687 688 -742 0
-687 688 742 0
687 -688 742 0
-687 -688 -742 0
689 690 -743 0
-689 690 743 0
689 -690 743 0
-689 -690 -743 0
691 692 -744 0
-691 692 744 0
691 -692 744 0
-691 -692 -744 0
693 694 -745 0
-693 694 745 0
693 -694 745 0
-693 -694 -745 0
695 696 -746 0
-695 696 746 0
695 -696 746 0
-695 -696 -746 0
697 397 -747 0
-697 397 747 0
697 -397 747 0
-697 -397 -747 0
698 699 -748 0
-698 699 748 0
698 -699 748 0
-698 -699 -748 0
700 701 -749 0
-700 701 749 0
700 -701 749 0
-700 -701 -749 0
702 703 -750 0
-702 703 750 0
702 -703 750 0
-702 -703 -750 0
704 705 -751 0
-704 705 751 0
704 -705 751 0
-704 -705 -751 0
706 707 -752 0
-706 707 752 0
706 -707 752 0
-706 -707 -752 0
708 709 -753 0
-708 709 753 0
708 -709 753 0
-708 -709 -753 0
710 711 -754 0
-710 711 754 0
710 -711 754 0
-710 -711 -754 0
712 713 -755 0
-712 713 755 0
712 -713 755 0
-712 -713 -755 0
714 715 -756 0
-714 715 756 0
714 -715 756 0
-714 -715 -756 0
716 717 -757 0
-716 717 757 0
716 -717 757 0
-716 -717 -757 0
718 719 -758 0
-718 719 758 0
718 -719 758 0
-718 -719 -758 0
720 721 -759 0
-720 721 759 0
720 -721 759 0
-720 -721 -759 0
722 723 -760 0
-722 723 760 0
722 -723 760 0
-722 -723 -760 0
724 725 -761 0
-724 725 761 0
724 -725 761 0
-724 -725 -761 0
726 727 -762 0
-726 727 762 0
726 -727 762 0
-726 -727 -762 0
728 729 -763 0
-728 729 763 0
728 -729 763 0
-728 -729 -763 0
730 731 -764 0
-730 731 764 0
730 -731 764 0
-730 -731 -764 0
732 733 -765 0
-732 733 765 0
732 -733 765 0
-732 -733 -765 0
734 735 -766 0
-734 735 766 0
734 -735 766 0
-734 -735 -766 0
736 737 -767 0
-736 737 767 0
736 -737 767 0
-736 -737 -767 0
738 739 -768 0
-738 739 768 0
738 -739 768 0
-738 -739 -768 0
740 741 -769 0
-740 741 769 0
740 -741 769 0
-740 -741 -769 0
742 743 -770 0
-742 743 770 0
742 -743 770 0
-742 -743 -770 0
744 745 -771 0
-744 745 771 0
744 -745 771 0
-744 -745 -771 0
746 747 -772 0
-746 747 772 0
746 -747 772 0
-746 -747 -772 0
748 749 -773 0
-748 749 773 0
748 -749 773 0
-748 -749 -773 0
750 751 -774 0
-750 751 774 0
750 -751 774 0
-750 -751 -774 0
752 753 -775 0
-752 753 775 0
752 -753 775 0
-752 -753 -775 0
754 755 -776 0
-754 755 776 0
754 -755 776 0
-754 -755 -776 0
756 757 -777 0
-756 757 777 0
756 -757 777 0
-756 -757 -777 0
758 759 -778 0
-758 759 778 0
758 -759 778 0
-758 -759 -778 0
760 761 -779 0
-760 761 779 0
760 -761 779 0
-760 -761 -779 0
762 763 -780 0
-762 763 780 0
762 -763 780 0
-762 -763 -780 0
764 765 -781 0
-764 765 781 0
764 -765 781 0
-764 -765 -781 0
766 767 -782 0
-766 767 782 0
766 -767 782 0
-766 -767 -782 0
768 769 -783 0
-768 769 783 0
768 -769 783 0
-768 -769 -783 0
770 771 -784 0
-770 771 784 0
770 -771 784 0
-770 -771 -784 0
773 774 -785 0
-773 774 785 0
773 -774 785 0
-773 -774 -785 0
775 776 -786 0
-775 776 786 0
775 -776 786 0
-775 -776 -786 0
777 778 -787 0
-777 778 787 0
777 -778 787 0
-777 -778 -787 0
779 780 -788 0
-779 780 788 0
779 -780 788 0
-779 -780 -788 0
781 782 -789 0
-781 782 789 0
781 -782 789 0
-781 -782 -789 0
783 784 -790 0
-783 784 790 0
783 -784 790 0
-783 -784 -790 0
785 786 -791 0
-785 786 791 0
785 -786 791 0
-785 -786 -791 0
787 788 -792 0
-787 788 792 0
787 -788 792 0
-787 -788 -792 0
789 790 -793 0
-789 790 793 0
789 -790 793 0
-789 -790 -793 0
791 792 -794 0
-791 792 794 0
791 -792 794 0
-791 -792 -794 0
793 772 -795 0
-793 772 795 0
793 -772 795 0
-793 -772 -795 0
794 795 -398 0
-794 795 398 0
794 -795 398 0
-794 -795 -398 0
